sat
((|B0| true))
((|B1| true))
((|B10| true))
((|B100| true))
((|B101| true))
((|B102| true))
((|B103| true))
((|B104| true))
((|B105| true))
((|B106| true))
((|B107| true))
((|B108| true))
((|B109| true))
((|B11| true))
((|B110| true))
((|B111| true))
((|B112| true))
((|B113| true))
((|B114| true))
((|B115| true))
((|B116| true))
((|B117| true))
((|B118| true))
((|B119| true))
((|B12| true))
((|B120| true))
((|B121| true))
((|B122| true))
((|B123| true))
((|B124| true))
((|B125| true))
((|B126| true))
((|B127| true))
((|B128| true))
((|B129| true))
((|B13| true))
((|B130| true))
((|B131| true))
((|B132| false))
((|B133| false))
((|B134| false))
((|B14| true))
((|B15| true))
((|B16| true))
((|B17| true))
((|B18| true))
((|B19| true))
((|B2| true))
((|B20| true))
((|B21| true))
((|B22| true))
((|B23| true))
((|B24| true))
((|B25| true))
((|B26| true))
((|B27| true))
((|B28| true))
((|B29| true))
((|B3| true))
((|B30| true))
((|B31| true))
((|B32| true))
((|B33| true))
((|B34| true))
((|B35| true))
((|B36| true))
((|B37| true))
((|B38| true))
((|B39| true))
((|B4| true))
((|B40| true))
((|B41| true))
((|B42| true))
((|B43| true))
((|B44| true))
((|B45| true))
((|B46| true))
((|B47| true))
((|B48| true))
((|B49| true))
((|B5| true))
((|B50| true))
((|B51| true))
((|B52| true))
((|B53| true))
((|B54| true))
((|B55| true))
((|B56| true))
((|B57| true))
((|B58| true))
((|B59| true))
((|B6| true))
((|B60| true))
((|B61| true))
((|B62| true))
((|B63| true))
((|B64| true))
((|B65| true))
((|B66| true))
((|B67| true))
((|B68| true))
((|B69| true))
((|B7| true))
((|B70| true))
((|B71| true))
((|B72| true))
((|B73| true))
((|B74| false))
((|B75| false))
((|B76| false))
((|B77| false))
((|B78| false))
((|B79| true))
((|B8| true))
((|B80| false))
((|B81| false))
((|B82| false))
((|B83| false))
((|B84| false))
((|B85| false))
((|B86| false))
((|B87| true))
((|B88| true))
((|B89| true))
((|B9| true))
((|B90| true))
((|B91| true))
((|B92| true))
((|B93| true))
((|B94| true))
((|B95| true))
((|B96| true))
((|B97| true))
((|B98| true))
((|B99| true))
((|__CPROVER_dead_object#1| #x00000000))
((|__CPROVER_dead_object#1$wclk$8| (- 26)))
((|__CPROVER_deallocated#1| #x00000000))
((|__CPROVER_deallocated#1$wclk$8| (- 25)))
((|__CPROVER_malloc_is_new_array#1| false))
((|__CPROVER_malloc_is_new_array#1$wclk$8| (- 24)))
((|__CPROVER_malloc_object#1| #x00000000))
((|__CPROVER_malloc_object#1$wclk$8| (- 23)))
((|__CPROVER_malloc_size#1| #x00000000))
((|__CPROVER_malloc_size#1$wclk$8| (- 22)))
((|__CPROVER_memory_leak#1| #x00000000))
((|__CPROVER_memory_leak#1$wclk$8| (- 21)))
((|__CPROVER_next_thread_id#1| #x00000000))
((|__CPROVER_next_thread_id#1$wclk$8| (- 20)))
((|__CPROVER_next_thread_id#10| #x00000003))
((|__CPROVER_next_thread_id#10$wclk$8| (- 2)))
((|__CPROVER_next_thread_id#2| #x00000001))
((|__CPROVER_next_thread_id#2$wclk$8| (- 10)))
((|__CPROVER_next_thread_id#3| #x00000001))
((|__CPROVER_next_thread_id#3$rclk$8| (- 6)))
((|__CPROVER_next_thread_id#4| #x00000001))
((|__CPROVER_next_thread_id#5| #x00000002))
((|__CPROVER_next_thread_id#6| #x00000002))
((|__CPROVER_next_thread_id#7| #x00000002))
((|__CPROVER_next_thread_id#7$wclk$8| (- 6)))
((|__CPROVER_next_thread_id#8| #x00000002))
((|__CPROVER_next_thread_id#8$rclk$8| (- 2)))
((|__CPROVER_next_thread_id#9| #x00000002))
((|__CPROVER_pipe_count#1| #x00000000))
((|__CPROVER_pipe_count#1$wclk$8| (- 19)))
((|__CPROVER_rounding_mode!0#1| #x00000000))
((|__CPROVER_rounding_mode!1#1| #x00000000))
((|__CPROVER_rounding_mode!2#1| #x00000000))
((|__CPROVER_rounding_mode!3#1| #x00000000))
((|__CPROVER_thread_id!0#1| #x00000000))
((|__CPROVER_thread_id!1#1| #x00000000))
((|__CPROVER_thread_id!1#2| #x00000000))
((|__CPROVER_thread_id!2#1| #x00000000))
((|__CPROVER_thread_id!2#2| #x00000000))
((|__CPROVER_thread_id!3#1| #x00000000))
((|__CPROVER_thread_id!3#2| #x04000000))
((|__CPROVER_threads_exited#1| ((as const (Array (_ BitVec 32) Bool)) false)))
((|__CPROVER_threads_exited#1$wclk$8| (- 18)))
((|__CPROVER_threads_exited#2| ((as const (Array (_ BitVec 32) Bool)) false)))
((|__CPROVER_threads_exited#2$rclk$8| 8))
((|__CPROVER_threads_exited#3| (store ((as const (Array (_ BitVec 32) Bool)) false) #x00000000 true)))
((|__CPROVER_threads_exited#3$wclk$8| 9))
((|__CPROVER_threads_exited#4| ((as const (Array (_ BitVec 32) Bool)) false)))
((|__CPROVER_threads_exited#4$rclk$8| 5))
((|__CPROVER_threads_exited#5| (store ((as const (Array (_ BitVec 32) Bool)) false) #x00000000 true)))
((|__CPROVER_threads_exited#5$wclk$8| 6))
((|__CPROVER_threads_exited#6| ((as const (Array (_ BitVec 32) Bool)) false)))
((|__CPROVER_threads_exited#6$rclk$8| 5))
((|__CPROVER_threads_exited#7| (store ((as const (Array (_ BitVec 32) Bool)) false) #x04000000 true)))
((|__CPROVER_threads_exited#7$wclk$8| 7))
((|__VERIFIER_assert::cond!1@1#1| #x00000000))
((|__VERIFIER_nondet_int#return_value!1#1| #x00000000))
((|__VERIFIER_nondet_int#return_value!2#1| #x00000000))
((|__VERIFIER_nondet_int#return_value!3#1| #x00000000))
((|argc'#0| #x10000000))
((|argv'| ((as const (Array (_ BitVec 32) (_ BitVec 32))) #x00000000)))
((|argv'#0| ((as const (Array (_ BitVec 32) (_ BitVec 32))) #x00000000)))
((|argv'#1| ((as const (Array (_ BitVec 32) (_ BitVec 32))) #x00000000)))
((|argv'#1$wclk$8| (- 15)))
((|goto_symex::&92;guard#1| true))
((|goto_symex::&92;guard#2| true))
((|goto_symex::&92;guard#3| true))
((|main#return_value!0#1| #x00000000))
((|main#return_value!1#1| #x00000000))
((|main#return_value!2#1| #x00000000))
((|main#return_value!3#1| #x00000000))
((|main::1::i!0@1#1| #x00000000))
((|main::1::i!0@1#2| #x00000000))
((|main::1::i!0@1#3| #x00000001))
((|main::1::i!0@1#4| #x00000002))
((|main::1::i!0@1#5| #x00000001))
((|main::1::i!0@1#6| #x00000001))
((|main::1::t1!0@1| #x00000000))
((|main::1::t1!0@1#1| #x00000000))
((|main::1::t1!0@1#1$wclk$8| (- 14)))
((|main::1::t1!0@1#2| #x00000001))
((|main::1::t1!0@1#2$wclk$8| (- 9)))
((|main::1::t2!0@1| #x00000000))
((|main::1::t2!0@1#1| #x00000000))
((|main::1::t2!0@1#1$wclk$8| (- 13)))
((|main::1::t2!0@1#2| #x00000002))
((|main::1::t2!0@1#2$wclk$8| (- 5)))
((|main::1::t2!0@1#3| #x00000003))
((|main::1::t2!0@1#3$wclk$8| (- 1)))
((|main::argc!0@1#1| #x10000000))
((|main::argv!0@1#1| #x02000000))
((|memory_model::choice_rf_0_19_0_15_F_29| true))
((|memory_model::choice_rf_0_19_0_9_F_28| false))
((|memory_model::choice_rf_0_20_0_16_T_10| true))
((|memory_model::choice_rf_0_20_0_6_T_9| false))
((|memory_model::choice_rf_0_24_0_15_F_31| true))
((|memory_model::choice_rf_0_24_0_9_F_30| false))
((|memory_model::choice_rf_0_25_0_16_T_12| false))
((|memory_model::choice_rf_0_25_0_21_T_13| true))
((|memory_model::choice_rf_0_25_0_6_T_11| false))
((|memory_model::choice_rf_1_0_0_10_F_14| false))
((|memory_model::choice_rf_1_0_0_14_F_15| true))
((|memory_model::choice_rf_1_0_2_1_F_16| false))
((|memory_model::choice_rf_1_0_3_1_F_17| false))
((|memory_model::choice_rf_1_1_0_15_F_33| true))
((|memory_model::choice_rf_1_1_0_9_F_32| false))
((|memory_model::choice_rf_1_2_0_10_F_18| false))
((|memory_model::choice_rf_1_2_0_14_F_19| false))
((|memory_model::choice_rf_1_2_2_1_F_20| true))
((|memory_model::choice_rf_1_2_3_1_F_21| false))
((|memory_model::choice_rf_1_3_0_15_F_35| true))
((|memory_model::choice_rf_1_3_0_9_F_34| false))
((|memory_model::choice_rf_1_4_0_8_T_0| false))
((|memory_model::choice_rf_1_4_2_3_T_1| false))
((|memory_model::choice_rf_1_4_3_3_T_2| false))
((|memory_model::choice_rf_2_0_0_10_F_22| false))
((|memory_model::choice_rf_2_0_0_14_F_23| false))
((|memory_model::choice_rf_2_0_3_1_F_24| true))
((|memory_model::choice_rf_2_2_0_8_T_3| true))
((|memory_model::choice_rf_2_2_1_5_T_4| false))
((|memory_model::choice_rf_2_2_3_3_T_5| false))
((|memory_model::choice_rf_3_0_0_10_F_25| false))
((|memory_model::choice_rf_3_0_0_14_F_26| true))
((|memory_model::choice_rf_3_0_2_1_F_27| false))
((|memory_model::choice_rf_3_2_0_8_T_6| true))
((|memory_model::choice_rf_3_2_1_5_T_7| false))
((|memory_model::choice_rf_3_2_2_3_T_8| false))
((|memory_model::choice_ws-ext_0_10_2_1_F_42| true))
((|memory_model::choice_ws-ext_0_10_3_1_F_43| true))
((|memory_model::choice_ws-ext_0_14_2_1_F_44| true))
((|memory_model::choice_ws-ext_0_14_3_1_F_45| true))
((|memory_model::choice_ws-ext_0_8_1_5_T_36| true))
((|memory_model::choice_ws-ext_0_8_2_3_T_37| true))
((|memory_model::choice_ws-ext_0_8_3_3_T_38| true))
((|memory_model::choice_ws-ext_1_5_2_3_T_39| false))
((|memory_model::choice_ws-ext_1_5_3_3_T_40| false))
((|memory_model::choice_ws-ext_2_1_3_1_F_46| false))
((|memory_model::choice_ws-ext_2_3_3_3_T_41| true))
((|n#1| #x00000000))
((|n#1$wclk$8| (- 17)))
((|n#2| #x00000002))
((|n#2$wclk$8| (- 11)))
((|n#3| #x00000002))
((|n#3$rclk$8| (- 7)))
((|n#4| #x00000002))
((|n#4$rclk$8| (- 3)))
((|n#5| #x00000002))
((|n#5$rclk$8| (- 6)))
((|n#6| #x00000002))
((|n#6$rclk$8| 6))
((|nondet_symex::nondet0| #x00000002))
((|pthread_create#return_value!0#1| #x00000000))
((|pthread_create#return_value!0#2| #x00000000))
((|pthread_create#return_value!0#3| #x00000000))
((|pthread_create#return_value!0#4| #x00000000))
((|pthread_create#return_value!0#5| #x00000000))
((|pthread_create#return_value!1#1| #x00000000))
((|pthread_create#return_value!2#1| #x00000000))
((|pthread_create#return_value!3#1| #x00000000))
((|pthread_create::1::this_thread_id!0@1#1| #x00000000))
((|pthread_create::1::this_thread_id!0@1#2| #x00000001))
((|pthread_create::1::this_thread_id!0@2#1| #x00000000))
((|pthread_create::1::this_thread_id!0@2#2| #x00000002))
((|pthread_create::1::this_thread_id!0@3#1| #x00000000))
((|pthread_create::1::this_thread_id!0@3#2| #x00000003))
((|pthread_create::1::this_thread_id!1@0#0| #x00000000))
((|pthread_create::1::this_thread_id!2@0#0| #x00000000))
((|pthread_create::1::this_thread_id!3@0#0| #x04000000))
((|pthread_create::arg!0@1#1| #x00000000))
((|pthread_create::arg!0@2#1| #x00000000))
((|pthread_create::arg!0@3#1| #x00000000))
((|pthread_create::arg!1@0#1| #x00000000))
((|pthread_create::arg!2@0#1| #x00000000))
((|pthread_create::arg!3@0#1| #x00000000))
((|pthread_create::attr!0@1#1| #x00000000))
((|pthread_create::attr!0@2#1| #x00000000))
((|pthread_create::attr!0@3#1| #x00000000))
((|pthread_create::attr!1@0#1| #x00000000))
((|pthread_create::attr!2@0#1| #x00000000))
((|pthread_create::attr!3@0#1| #x00000000))
((|pthread_create::start_routine!0@1#1| #x04000000))
((|pthread_create::start_routine!0@2#1| #x06000000))
((|pthread_create::start_routine!0@3#1| #x06000000))
((|pthread_create::start_routine!1@0#1| #x04000000))
((|pthread_create::start_routine!2@0#1| #x06000000))
((|pthread_create::start_routine!3@0#1| #x06000000))
((|pthread_create::thread!0@1#1| #x03000000))
((|pthread_create::thread!0@2#1| #x05000000))
((|pthread_create::thread!0@3#1| #x05000000))
((|pthread_create::thread!1@0#1| #x03000000))
((|pthread_create::thread!2@0#1| #x05000000))
((|pthread_create::thread!3@0#1| #x05000000))
((|return'!0#1| #x00000000))
((|symex::io::0| #x10000000))
((|t1$18$spwnclk$8| (- 8)))
((|t1$23$spwnclk$8| (- 4)))
((|t1$28$spwnclk$8| 0))
((|thr1#return_value!1#1| #x00000000))
((|thr1#return_value!1#2| #x00000000))
((|thr1#return_value!2#1| #x00000000))
((|thr1#return_value!3#1| #x00000000))
((|thr1::arg!1@1#1| #x00000000))
((|thr2#return_value!1#1| #x00000000))
((|thr2#return_value!2#1| #x00000000))
((|thr2#return_value!2#2| #x00000000))
((|thr2#return_value!3#1| #x00000000))
((|thr2#return_value!3#2| #x00000000))
((|thr2::1::t!2@1#1| #x00000000))
((|thr2::1::t!2@1#2| #x00000001))
((|thr2::1::t!3@1#1| #x00000000))
((|thr2::1::t!3@1#2| #x00000000))
((|thr2::arg!2@1#1| #x00000000))
((|thr2::arg!3@1#1| #x00000000))
((|x#1| #x00000000))
((|x#1$wclk$8| (- 16)))
((|x#2| #x00000000))
((|x#2$wclk$8| (- 12)))
((|x#3| #x00000000))
((|x#3$rclk$8| (- 7)))
((|x#4| #x00000002))
((|x#4$rclk$8| 5))
((|x#5| #x00000001))
((|x#5$rclk$8| 3))
((|x#6| #x00000002))
((|x#6$wclk$8| 4))
((|x#7| #x00000000))
((|x#7$rclk$8| 1))
((|x#8| #x00000001))
((|x#8$wclk$8| 2))
(model 
  (define-fun |__CPROVER_threads_exited#6| () (Array (_ BitVec 32) Bool)
    ((as const (Array (_ BitVec 32) Bool)) false))
  (define-fun |memory_model::choice_ws-ext_2_1_3_1_F_46| () Bool
    false)
  (define-fun |memory_model::choice_ws-ext_0_10_3_1_F_43| () Bool
    true)
  (define-fun |memory_model::choice_rf_0_24_0_15_F_31| () Bool
    true)
  (define-fun |memory_model::choice_rf_2_0_0_14_F_23| () Bool
    false)
  (define-fun |main::1::t2!0@1#2$wclk$8| () Int
    (- 5))
  (define-fun |main::1::t1!0@1#1$wclk$8| () Int
    (- 14))
  (define-fun |memory_model::choice_rf_3_0_2_1_F_27| () Bool
    false)
  (define-fun |x#4$rclk$8| () Int
    5)
  (define-fun |main::1::t2!0@1#1$wclk$8| () Int
    (- 13))
  (define-fun |memory_model::choice_ws-ext_1_5_2_3_T_39| () Bool
    false)
  (define-fun |memory_model::choice_rf_0_19_0_9_F_28| () Bool
    false)
  (define-fun |memory_model::choice_rf_3_0_0_14_F_26| () Bool
    true)
  (define-fun |memory_model::choice_rf_2_0_3_1_F_24| () Bool
    true)
  (define-fun |n#5| () (_ BitVec 32)
    #x00000002)
  (define-fun |__CPROVER_next_thread_id#8| () (_ BitVec 32)
    #x00000002)
  (define-fun |memory_model::choice_rf_3_2_2_3_T_8| () Bool
    false)
  (define-fun |x#6$wclk$8| () Int
    4)
  (define-fun |pthread_create::1::this_thread_id!2@0#0| () (_ BitVec 32)
    #x00000000)
  (define-fun |main::1::t1!0@1#2$wclk$8| () Int
    (- 9))
  (define-fun |x#4| () (_ BitVec 32)
    #x00000002)
  (define-fun |__CPROVER_threads_exited#6$rclk$8| () Int
    5)
  (define-fun t1$23$spwnclk$8 () Int
    (- 4))
  (define-fun |memory_model::choice_rf_3_0_0_10_F_25| () Bool
    false)
  (define-fun |memory_model::choice_rf_1_2_2_1_F_20| () Bool
    true)
  (define-fun |x#2$wclk$8| () Int
    (- 12))
  (define-fun |x#8$wclk$8| () Int
    2)
  (define-fun |__CPROVER_threads_exited#7$wclk$8| () Int
    7)
  (define-fun |memory_model::choice_ws-ext_0_8_1_5_T_36| () Bool
    true)
  (define-fun |memory_model::choice_rf_1_1_0_9_F_32| () Bool
    false)
  (define-fun |nondet_symex::nondet0| () (_ BitVec 32)
    #x00000002)
  (define-fun |__CPROVER_threads_exited#3$wclk$8| () Int
    9)
  (define-fun |memory_model::choice_rf_2_2_0_8_T_3| () Bool
    true)
  (define-fun |memory_model::choice_rf_1_0_2_1_F_16| () Bool
    false)
  (define-fun |main::1::t2!0@1#3$wclk$8| () Int
    (- 1))
  (define-fun |n#4| () (_ BitVec 32)
    #x00000002)
  (define-fun |x#1$wclk$8| () Int
    (- 16))
  (define-fun array_of.0 () (Array (_ BitVec 32) Bool)
    ((as const (Array (_ BitVec 32) Bool)) false))
  (define-fun |n#3| () (_ BitVec 32)
    #x00000002)
  (define-fun |__CPROVER_next_thread_id#7$wclk$8| () Int
    (- 6))
  (define-fun |memory_model::choice_rf_0_25_0_6_T_11| () Bool
    false)
  (define-fun |n#5$rclk$8| () Int
    (- 6))
  (define-fun |__CPROVER_threads_exited#4| () (Array (_ BitVec 32) Bool)
    ((as const (Array (_ BitVec 32) Bool)) false))
  (define-fun |pthread_create::1::this_thread_id!3@0#0| () (_ BitVec 32)
    #x04000000)
  (define-fun t1$28$spwnclk$8 () Int
    0)
  (define-fun |memory_model::choice_ws-ext_0_10_2_1_F_42| () Bool
    true)
  (define-fun |n#2$wclk$8| () Int
    (- 11))
  (define-fun |memory_model::choice_rf_1_2_3_1_F_21| () Bool
    false)
  (define-fun |memory_model::choice_rf_1_0_3_1_F_17| () Bool
    false)
  (define-fun |memory_model::choice_rf_1_0_0_14_F_15| () Bool
    true)
  (define-fun |memory_model::choice_rf_1_1_0_15_F_33| () Bool
    true)
  (define-fun |memory_model::choice_ws-ext_0_14_3_1_F_45| () Bool
    true)
  (define-fun |memory_model::choice_rf_1_3_0_9_F_34| () Bool
    false)
  (define-fun |n#6| () (_ BitVec 32)
    #x00000002)
  (define-fun |x#3$rclk$8| () Int
    (- 7))
  (define-fun |memory_model::choice_rf_0_20_0_16_T_10| () Bool
    true)
  (define-fun |n#3$rclk$8| () Int
    (- 7))
  (define-fun |__CPROVER_threads_exited#1$wclk$8| () Int
    (- 18))
  (define-fun |memory_model::choice_ws-ext_2_3_3_3_T_41| () Bool
    true)
  (define-fun |memory_model::choice_rf_1_2_0_14_F_19| () Bool
    false)
  (define-fun |memory_model::choice_rf_1_0_0_10_F_14| () Bool
    false)
  (define-fun |memory_model::choice_rf_0_25_0_16_T_12| () Bool
    false)
  (define-fun |memory_model::choice_ws-ext_1_5_3_3_T_40| () Bool
    false)
  (define-fun |__CPROVER_threads_exited#2$rclk$8| () Int
    8)
  (define-fun |x#5| () (_ BitVec 32)
    #x00000001)
  (define-fun |x#7| () (_ BitVec 32)
    #x00000000)
  (define-fun |memory_model::choice_rf_0_24_0_9_F_30| () Bool
    false)
  (define-fun |memory_model::choice_rf_0_25_0_21_T_13| () Bool
    true)
  (define-fun |argv'#1$wclk$8| () Int
    (- 15))
  (define-fun |__CPROVER_next_thread_id#10$wclk$8| () Int
    (- 2))
  (define-fun |n#4$rclk$8| () Int
    (- 3))
  (define-fun |memory_model::choice_rf_2_2_3_3_T_5| () Bool
    false)
  (define-fun |memory_model::choice_rf_1_2_0_10_F_18| () Bool
    false)
  (define-fun |memory_model::choice_rf_0_20_0_6_T_9| () Bool
    false)
  (define-fun |__CPROVER_threads_exited#5$wclk$8| () Int
    6)
  (define-fun |x#3| () (_ BitVec 32)
    #x00000000)
  (define-fun |x#7$rclk$8| () Int
    1)
  (define-fun |memory_model::choice_ws-ext_0_8_3_3_T_38| () Bool
    true)
  (define-fun |__CPROVER_next_thread_id#3| () (_ BitVec 32)
    #x00000001)
  (define-fun |x#5$rclk$8| () Int
    3)
  (define-fun t1$18$spwnclk$8 () Int
    (- 8))
  (define-fun |memory_model::choice_rf_3_2_0_8_T_6| () Bool
    true)
  (define-fun |memory_model::choice_ws-ext_0_14_2_1_F_44| () Bool
    true)
  (define-fun |memory_model::choice_ws-ext_0_8_2_3_T_37| () Bool
    true)
  (define-fun |memory_model::choice_rf_1_3_0_15_F_35| () Bool
    true)
  (define-fun |__CPROVER_threads_exited#4$rclk$8| () Int
    5)
  (define-fun |memory_model::choice_rf_2_0_0_10_F_22| () Bool
    false)
  (define-fun |symex::io::0| () (_ BitVec 32)
    #x10000000)
  (define-fun |memory_model::choice_rf_0_19_0_15_F_29| () Bool
    true)
  (define-fun |__CPROVER_next_thread_id#2$wclk$8| () Int
    (- 10))
  (define-fun |n#6$rclk$8| () Int
    6)
  (define-fun |n#1$wclk$8| () Int
    (- 17))
  (define-fun |__CPROVER_pipe_count#1$wclk$8| () Int
    (- 19))
  (define-fun |__CPROVER_next_thread_id#1$wclk$8| () Int
    (- 20))
  (define-fun |__CPROVER_memory_leak#1$wclk$8| () Int
    (- 21))
  (define-fun |__CPROVER_malloc_size#1$wclk$8| () Int
    (- 22))
  (define-fun |__CPROVER_malloc_object#1$wclk$8| () Int
    (- 23))
  (define-fun |__CPROVER_malloc_is_new_array#1$wclk$8| () Int
    (- 24))
  (define-fun |__CPROVER_deallocated#1$wclk$8| () Int
    (- 25))
  (define-fun |__CPROVER_dead_object#1$wclk$8| () Int
    (- 26))
  (define-fun |memory_model::choice_rf_1_4_3_3_T_2| () Bool
    false)
  (define-fun |memory_model::choice_rf_1_4_2_3_T_1| () Bool
    false)
  (define-fun |memory_model::choice_rf_1_4_0_8_T_0| () Bool
    false)
  (define-fun |__CPROVER_next_thread_id#8$rclk$8| () Int
    (- 2))
  (define-fun |__CPROVER_next_thread_id#3$rclk$8| () Int
    (- 6))
  (define-fun |memory_model::choice_rf_3_2_1_5_T_7| () Bool
    false)
  (define-fun |memory_model::choice_rf_2_2_1_5_T_4| () Bool
    false)
  (define-fun |argc'#0| () (_ BitVec 32)
    #x10000000)
  (define-fun |goto_symex::&92;guard#3| () Bool
    true)
  (define-fun |goto_symex::&92;guard#2| () Bool
    true)
  (define-fun |__CPROVER_next_thread_id#5| () (_ BitVec 32)
    #x00000002)
  (define-fun |goto_symex::&92;guard#1| () Bool
    true)
  (define-fun B134 () Bool
    false)
  (define-fun B133 () Bool
    false)
  (define-fun B132 () Bool
    false)
  (define-fun B131 () Bool
    true)
  (define-fun B130 () Bool
    true)
  (define-fun B129 () Bool
    true)
  (define-fun |thr2::1::t!3@1#1| () (_ BitVec 32)
    #x00000000)
  (define-fun B128 () Bool
    true)
  (define-fun |thr2::1::t!2@1#1| () (_ BitVec 32)
    #x00000000)
  (define-fun B127 () Bool
    true)
  (define-fun |pthread_create::1::this_thread_id!0@3#1| () (_ BitVec 32)
    #x00000000)
  (define-fun B126 () Bool
    true)
  (define-fun |pthread_create::1::this_thread_id!0@2#1| () (_ BitVec 32)
    #x00000000)
  (define-fun B125 () Bool
    true)
  (define-fun |pthread_create::1::this_thread_id!0@1#1| () (_ BitVec 32)
    #x00000000)
  (define-fun B124 () Bool
    true)
  (define-fun |main::1::i!0@1#1| () (_ BitVec 32)
    #x00000000)
  (define-fun B123 () Bool
    true)
  (define-fun |main::1::t2!0@1#1| () (_ BitVec 32)
    #x00000000)
  (define-fun B122 () Bool
    true)
  (define-fun |main::1::t1!0@1#1| () (_ BitVec 32)
    #x00000000)
  (define-fun B121 () Bool
    true)
  (define-fun |__CPROVER_threads_exited#7| () (Array (_ BitVec 32) Bool)
    (store ((as const (Array (_ BitVec 32) Bool)) false) #x04000000 true))
  (define-fun |thr2#return_value!3#2| () (_ BitVec 32)
    #x00000000)
  (define-fun |x#8| () (_ BitVec 32)
    #x00000001)
  (define-fun |thr2::1::t!3@1#2| () (_ BitVec 32)
    #x00000000)
  (define-fun |thr2::arg!3@1#1| () (_ BitVec 32)
    #x00000000)
  (define-fun |__CPROVER_thread_id!3#2| () (_ BitVec 32)
    #x04000000)
  (define-fun |__CPROVER_threads_exited#5| () (Array (_ BitVec 32) Bool)
    (store ((as const (Array (_ BitVec 32) Bool)) false) #x00000000 true))
  (define-fun |thr2#return_value!2#2| () (_ BitVec 32)
    #x00000000)
  (define-fun |x#6| () (_ BitVec 32)
    #x00000002)
  (define-fun |thr2::1::t!2@1#2| () (_ BitVec 32)
    #x00000001)
  (define-fun |thr2::arg!2@1#1| () (_ BitVec 32)
    #x00000000)
  (define-fun |__CPROVER_thread_id!2#2| () (_ BitVec 32)
    #x00000000)
  (define-fun |__CPROVER_threads_exited#2| () (Array (_ BitVec 32) Bool)
    ((as const (Array (_ BitVec 32) Bool)) false))
  (define-fun |pthread_create::1::this_thread_id!1@0#0| () (_ BitVec 32)
    #x00000000)
  (define-fun |__CPROVER_threads_exited#3| () (Array (_ BitVec 32) Bool)
    (store ((as const (Array (_ BitVec 32) Bool)) false) #x00000000 true))
  (define-fun |thr1#return_value!1#2| () (_ BitVec 32)
    #x00000000)
  (define-fun |__VERIFIER_assert::cond!1@1#1| () (_ BitVec 32)
    #x00000000)
  (define-fun |thr1::arg!1@1#1| () (_ BitVec 32)
    #x00000000)
  (define-fun |__CPROVER_thread_id!1#2| () (_ BitVec 32)
    #x00000000)
  (define-fun |return'!0#1| () (_ BitVec 32)
    #x00000000)
  (define-fun |main#return_value!0#1| () (_ BitVec 32)
    #x00000000)
  (define-fun |main::1::i!0@1#6| () (_ BitVec 32)
    #x00000001)
  (define-fun |pthread_create#return_value!0#5| () (_ BitVec 32)
    #x00000000)
  (define-fun |main::1::i!0@1#5| () (_ BitVec 32)
    #x00000001)
  (define-fun |pthread_create#return_value!0#4| () (_ BitVec 32)
    #x00000000)
  (define-fun |main::1::i!0@1#4| () (_ BitVec 32)
    #x00000002)
  (define-fun |pthread_create#return_value!0#3| () (_ BitVec 32)
    #x00000000)
  (define-fun |__CPROVER_thread_id!3#1| () (_ BitVec 32)
    #x00000000)
  (define-fun |main#return_value!3#1| () (_ BitVec 32)
    #x00000000)
  (define-fun |__CPROVER_rounding_mode!3#1| () (_ BitVec 32)
    #x00000000)
  (define-fun |pthread_create#return_value!3#1| () (_ BitVec 32)
    #x00000000)
  (define-fun |thr2#return_value!3#1| () (_ BitVec 32)
    #x00000000)
  (define-fun |thr1#return_value!3#1| () (_ BitVec 32)
    #x00000000)
  (define-fun |__VERIFIER_nondet_int#return_value!3#1| () (_ BitVec 32)
    #x00000000)
  (define-fun |pthread_create::arg!3@0#1| () (_ BitVec 32)
    #x00000000)
  (define-fun |pthread_create::start_routine!3@0#1| () (_ BitVec 32)
    #x06000000)
  (define-fun |pthread_create::attr!3@0#1| () (_ BitVec 32)
    #x00000000)
  (define-fun |pthread_create::thread!3@0#1| () (_ BitVec 32)
    #x05000000)
  (define-fun |main::1::t2!0@1#3| () (_ BitVec 32)
    #x00000003)
  (define-fun |pthread_create::1::this_thread_id!0@3#2| () (_ BitVec 32)
    #x00000003)
  (define-fun |__CPROVER_next_thread_id#10| () (_ BitVec 32)
    #x00000003)
  (define-fun |__CPROVER_next_thread_id#9| () (_ BitVec 32)
    #x00000002)
  (define-fun |pthread_create::arg!0@3#1| () (_ BitVec 32)
    #x00000000)
  (define-fun |pthread_create::start_routine!0@3#1| () (_ BitVec 32)
    #x06000000)
  (define-fun |pthread_create::attr!0@3#1| () (_ BitVec 32)
    #x00000000)
  (define-fun |pthread_create::thread!0@3#1| () (_ BitVec 32)
    #x05000000)
  (define-fun |main::1::i!0@1#3| () (_ BitVec 32)
    #x00000001)
  (define-fun |pthread_create#return_value!0#2| () (_ BitVec 32)
    #x00000000)
  (define-fun |__CPROVER_thread_id!2#1| () (_ BitVec 32)
    #x00000000)
  (define-fun |main#return_value!2#1| () (_ BitVec 32)
    #x00000000)
  (define-fun |__CPROVER_rounding_mode!2#1| () (_ BitVec 32)
    #x00000000)
  (define-fun |pthread_create#return_value!2#1| () (_ BitVec 32)
    #x00000000)
  (define-fun |thr2#return_value!2#1| () (_ BitVec 32)
    #x00000000)
  (define-fun |thr1#return_value!2#1| () (_ BitVec 32)
    #x00000000)
  (define-fun |__VERIFIER_nondet_int#return_value!2#1| () (_ BitVec 32)
    #x00000000)
  (define-fun |pthread_create::arg!2@0#1| () (_ BitVec 32)
    #x00000000)
  (define-fun |pthread_create::start_routine!2@0#1| () (_ BitVec 32)
    #x06000000)
  (define-fun |pthread_create::attr!2@0#1| () (_ BitVec 32)
    #x00000000)
  (define-fun |pthread_create::thread!2@0#1| () (_ BitVec 32)
    #x05000000)
  (define-fun |main::1::t2!0@1#2| () (_ BitVec 32)
    #x00000002)
  (define-fun |pthread_create::1::this_thread_id!0@2#2| () (_ BitVec 32)
    #x00000002)
  (define-fun |__CPROVER_next_thread_id#7| () (_ BitVec 32)
    #x00000002)
  (define-fun |__CPROVER_next_thread_id#6| () (_ BitVec 32)
    #x00000002)
  (define-fun |__CPROVER_next_thread_id#4| () (_ BitVec 32)
    #x00000001)
  (define-fun |pthread_create::arg!0@2#1| () (_ BitVec 32)
    #x00000000)
  (define-fun |pthread_create::start_routine!0@2#1| () (_ BitVec 32)
    #x06000000)
  (define-fun |pthread_create::attr!0@2#1| () (_ BitVec 32)
    #x00000000)
  (define-fun |pthread_create::thread!0@2#1| () (_ BitVec 32)
    #x05000000)
  (define-fun |main::1::i!0@1#2| () (_ BitVec 32)
    #x00000000)
  (define-fun |pthread_create#return_value!0#1| () (_ BitVec 32)
    #x00000000)
  (define-fun |__CPROVER_thread_id!1#1| () (_ BitVec 32)
    #x00000000)
  (define-fun |main#return_value!1#1| () (_ BitVec 32)
    #x00000000)
  (define-fun |__CPROVER_rounding_mode!1#1| () (_ BitVec 32)
    #x00000000)
  (define-fun |pthread_create#return_value!1#1| () (_ BitVec 32)
    #x00000000)
  (define-fun |thr2#return_value!1#1| () (_ BitVec 32)
    #x00000000)
  (define-fun |thr1#return_value!1#1| () (_ BitVec 32)
    #x00000000)
  (define-fun |__VERIFIER_nondet_int#return_value!1#1| () (_ BitVec 32)
    #x00000000)
  (define-fun |pthread_create::arg!1@0#1| () (_ BitVec 32)
    #x00000000)
  (define-fun |pthread_create::start_routine!1@0#1| () (_ BitVec 32)
    #x04000000)
  (define-fun |pthread_create::attr!1@0#1| () (_ BitVec 32)
    #x00000000)
  (define-fun |pthread_create::thread!1@0#1| () (_ BitVec 32)
    #x03000000)
  (define-fun |main::1::t1!0@1#2| () (_ BitVec 32)
    #x00000001)
  (define-fun |pthread_create::1::this_thread_id!0@1#2| () (_ BitVec 32)
    #x00000001)
  (define-fun |__CPROVER_next_thread_id#2| () (_ BitVec 32)
    #x00000001)
  (define-fun |pthread_create::arg!0@1#1| () (_ BitVec 32)
    #x00000000)
  (define-fun |pthread_create::start_routine!0@1#1| () (_ BitVec 32)
    #x04000000)
  (define-fun |pthread_create::attr!0@1#1| () (_ BitVec 32)
    #x00000000)
  (define-fun |pthread_create::thread!0@1#1| () (_ BitVec 32)
    #x03000000)
  (define-fun |n#2| () (_ BitVec 32)
    #x00000002)
  (define-fun |x#2| () (_ BitVec 32)
    #x00000000)
  (define-fun |main::argv!0@1#1| () (_ BitVec 32)
    #x02000000)
  (define-fun |main::argc!0@1#1| () (_ BitVec 32)
    #x10000000)
  (define-fun |argv'#0| () (Array (_ BitVec 32) (_ BitVec 32))
    ((as const (Array (_ BitVec 32) (_ BitVec 32))) #x00000000))
  (define-fun |argv'#1| () (Array (_ BitVec 32) (_ BitVec 32))
    ((as const (Array (_ BitVec 32) (_ BitVec 32))) #x00000000))
  (define-fun |x#1| () (_ BitVec 32)
    #x00000000)
  (define-fun |n#1| () (_ BitVec 32)
    #x00000000)
  (define-fun |__CPROVER_threads_exited#1| () (Array (_ BitVec 32) Bool)
    ((as const (Array (_ BitVec 32) Bool)) false))
  (define-fun |__CPROVER_thread_id!0#1| () (_ BitVec 32)
    #x00000000)
  (define-fun |__CPROVER_rounding_mode!0#1| () (_ BitVec 32)
    #x00000000)
  (define-fun |__CPROVER_pipe_count#1| () (_ BitVec 32)
    #x00000000)
  (define-fun |__CPROVER_next_thread_id#1| () (_ BitVec 32)
    #x00000000)
  (define-fun |__CPROVER_memory_leak#1| () (_ BitVec 32)
    #x00000000)
  (define-fun |__CPROVER_malloc_size#1| () (_ BitVec 32)
    #x00000000)
  (define-fun |__CPROVER_malloc_object#1| () (_ BitVec 32)
    #x00000000)
  (define-fun |__CPROVER_malloc_is_new_array#1| () Bool
    false)
  (define-fun |__CPROVER_deallocated#1| () (_ BitVec 32)
    #x00000000)
  (define-fun |__CPROVER_dead_object#1| () (_ BitVec 32)
    #x00000000)
  (define-fun B120 () Bool
    true)
  (define-fun B119 () Bool
    true)
  (define-fun B118 () Bool
    true)
  (define-fun B117 () Bool
    true)
  (define-fun B116 () Bool
    true)
  (define-fun B115 () Bool
    true)
  (define-fun B114 () Bool
    true)
  (define-fun B113 () Bool
    true)
  (define-fun B112 () Bool
    true)
  (define-fun B111 () Bool
    true)
  (define-fun B110 () Bool
    true)
  (define-fun B109 () Bool
    true)
  (define-fun B108 () Bool
    true)
  (define-fun B107 () Bool
    true)
  (define-fun B106 () Bool
    true)
  (define-fun B105 () Bool
    true)
  (define-fun B104 () Bool
    true)
  (define-fun B103 () Bool
    true)
  (define-fun B102 () Bool
    true)
  (define-fun B101 () Bool
    true)
  (define-fun B100 () Bool
    true)
  (define-fun B99 () Bool
    true)
  (define-fun B98 () Bool
    true)
  (define-fun B97 () Bool
    true)
  (define-fun B96 () Bool
    true)
  (define-fun B95 () Bool
    true)
  (define-fun B94 () Bool
    true)
  (define-fun B93 () Bool
    true)
  (define-fun B92 () Bool
    true)
  (define-fun B91 () Bool
    true)
  (define-fun B90 () Bool
    true)
  (define-fun B89 () Bool
    true)
  (define-fun B88 () Bool
    true)
  (define-fun B87 () Bool
    true)
  (define-fun B86 () Bool
    false)
  (define-fun B85 () Bool
    false)
  (define-fun B84 () Bool
    false)
  (define-fun B83 () Bool
    false)
  (define-fun B82 () Bool
    false)
  (define-fun B81 () Bool
    false)
  (define-fun B80 () Bool
    false)
  (define-fun B79 () Bool
    true)
  (define-fun B78 () Bool
    false)
  (define-fun B77 () Bool
    false)
  (define-fun B76 () Bool
    false)
  (define-fun B75 () Bool
    false)
  (define-fun B74 () Bool
    false)
  (define-fun B73 () Bool
    true)
  (define-fun B72 () Bool
    true)
  (define-fun B71 () Bool
    true)
  (define-fun B70 () Bool
    true)
  (define-fun B69 () Bool
    true)
  (define-fun B68 () Bool
    true)
  (define-fun B67 () Bool
    true)
  (define-fun B66 () Bool
    true)
  (define-fun B65 () Bool
    true)
  (define-fun B64 () Bool
    true)
  (define-fun B63 () Bool
    true)
  (define-fun B62 () Bool
    true)
  (define-fun B61 () Bool
    true)
  (define-fun B60 () Bool
    true)
  (define-fun B59 () Bool
    true)
  (define-fun B58 () Bool
    true)
  (define-fun B57 () Bool
    true)
  (define-fun B56 () Bool
    true)
  (define-fun B55 () Bool
    true)
  (define-fun B54 () Bool
    true)
  (define-fun B53 () Bool
    true)
  (define-fun B52 () Bool
    true)
  (define-fun B51 () Bool
    true)
  (define-fun B50 () Bool
    true)
  (define-fun B49 () Bool
    true)
  (define-fun B48 () Bool
    true)
  (define-fun B47 () Bool
    true)
  (define-fun B46 () Bool
    true)
  (define-fun B45 () Bool
    true)
  (define-fun B44 () Bool
    true)
  (define-fun B43 () Bool
    true)
  (define-fun B42 () Bool
    true)
  (define-fun B41 () Bool
    true)
  (define-fun B40 () Bool
    true)
  (define-fun B39 () Bool
    true)
  (define-fun B38 () Bool
    true)
  (define-fun B37 () Bool
    true)
  (define-fun B36 () Bool
    true)
  (define-fun B35 () Bool
    true)
  (define-fun B34 () Bool
    true)
  (define-fun B33 () Bool
    true)
  (define-fun B32 () Bool
    true)
  (define-fun B31 () Bool
    true)
  (define-fun B30 () Bool
    true)
  (define-fun B29 () Bool
    true)
  (define-fun B28 () Bool
    true)
  (define-fun B27 () Bool
    true)
  (define-fun B26 () Bool
    true)
  (define-fun B25 () Bool
    true)
  (define-fun B24 () Bool
    true)
  (define-fun B23 () Bool
    true)
  (define-fun B22 () Bool
    true)
  (define-fun B21 () Bool
    true)
  (define-fun B20 () Bool
    true)
  (define-fun B19 () Bool
    true)
  (define-fun B18 () Bool
    true)
  (define-fun B17 () Bool
    true)
  (define-fun B16 () Bool
    true)
  (define-fun B15 () Bool
    true)
  (define-fun B14 () Bool
    true)
  (define-fun B13 () Bool
    true)
  (define-fun B12 () Bool
    true)
  (define-fun B11 () Bool
    true)
  (define-fun B10 () Bool
    true)
  (define-fun B9 () Bool
    true)
  (define-fun B8 () Bool
    true)
  (define-fun B7 () Bool
    true)
  (define-fun B6 () Bool
    true)
  (define-fun B5 () Bool
    true)
  (define-fun B4 () Bool
    true)
  (define-fun B3 () Bool
    true)
  (define-fun B2 () Bool
    true)
  (define-fun B1 () Bool
    true)
  (define-fun B0 () Bool
    true)
  (define-fun |argv'| () (Array (_ BitVec 32) (_ BitVec 32))
    ((as const (Array (_ BitVec 32) (_ BitVec 32))) #x00000000))
  (define-fun |main::1::t1!0@1| () (_ BitVec 32)
    #x00000000)
  (define-fun |main::1::t2!0@1| () (_ BitVec 32)
    #x00000000)
)
(:added-eqs                      260
 :arith-bound-propagations-cheap 51
 :arith-bound-propagations-lp    68
 :arith-lower                    79
 :arith-make-feasible            42
 :arith-max-columns              121
 :arith-max-rows                 84
 :arith-propagations             51
 :arith-upper                    54
 :array-ax1                      2
 :binary-propagations            1167
 :bv-bit2core                    1240
 :bv-diseqs                      3
 :bv-dynamic-diseqs              4
 :bv->core-eq                    50
 :conflicts                      26
 :decisions                      476
 :del-clause                     225
 :eliminated-applications        19
 :eliminated-vars                9
 :final-checks                   1
 :max-memory                     4.49
 :memory                         3.22
 :minimized-lits                 6
 :mk-bool-var                    1086
 :mk-clause                      944
 :num-allocs                     1231533
 :num-checks                     1
 :propagations                   1984
 :rlimit-count                   202443
 :time                           0.01
 :total-time                     0.04)

real	0m0.041s
user	0m0.040s
sys	0m0.000s
State: AC Run_time: 0.04257845878601074